p cnf 10 50
10 1 7 0
10 2 -8 0
2 3 -8 0
-3 1 -5 0
3 -5 8 0
5 -3 2 0
-5 -7 6 0
-10 -7 -4 0
1 -7 -2 0
9 -5 -1 0
-1 -5 -6 0
-8 -3 1 0
1 -4 8 0
-6 -2 -3 0
-6 10 3 0
-7 1 -2 0
-7 9 -5 0
-2 3 -1 0
8 3 9 0
-3 7 -1 0
-5 -10 6 0
3 -8 4 0
-10 -8 2 0
-2 -10 9 0
7 -3 -6 0
-2 -5 9 0
10 4 3 0
-8 4 -5 0
-6 9 10 0
4 9 5 0
-3 10 -4 0
3 -1 9 0
7 1 -5 0
-1 -4 5 0
6 -10 -7 0
5 -7 2 0
-1 9 7 0
3 1 -5 0
-10 -5 -1 0
-3 6 -2 0
-8 -4 9 0
4 3 10 0
4 -10 -5 0
5 -7 -1 0
2 9 6 0
-1 -9 -7 0
-6 3 4 0
7 9 -8 0
4 -3 -1 0
8 -3 -6 0